proyfinal/src/viki/013/andrea/andrea-localstore/experimentInOfficeAgust.take6/worker_10/9a8955e3-7112-4d24-be1b-180edeff6194.als.cnf.out
Reading from standard input... Use '--help' for help.
============================[ Problem Statistics ]=============================
|                                                                             |
|  Number of variables:         87638                                         |
|  Number of clauses:          161767                                         |
|  Parse time:                   0.03 s                                       |
|                                                                             |
============================[ Search Statistics ]==============================
| Conflicts |          ORIGINAL         |          LEARNT          | Progress |
|           |    Vars  Clauses Literals |    Limit  Clauses Lit/Cl |          |
===============================================================================
|       100 |   62251   104719   261650 |    38396      100     51 | 28.968 % |
|       250 |   62251   104719   261650 |    42236      250     41 | 28.968 % |
|       475 |   62250   104675   261560 |    46460      474     45 | 28.969 % |
|       812 |   62250   104675   261560 |    51106      811     55 | 28.969 % |
|      1318 |   62250   104675   261560 |    56216     1317     59 | 28.969 % |
|      2077 |   62250   104675   261560 |    61838     2076     64 | 28.969 % |
|      3216 |   62250   104675   261560 |    68022     3215     70 | 28.969 % |
|      4924 |   62230   104597   261377 |    74824     4005     67 | 28.992 % |
|      7486 |   47350    61549   155951 |    82307     5388     57 | 45.971 % |
===============================================================================
restarts              : 45
conflicts             : 10346          (7491 /sec)
decisions             : 32905          (0.00 % random) (23823 /sec)
propagations          : 16224094       (11746291 /sec)
conflict literals     : 523331         (52.88 % deleted)
Memory used           : 26.92 MB
CPU time              : 1.38121 s

UNSATISFIABLE
